53008.9
1 2 3 4 5 6 17 18 19 20 21 22 23 24 25 26 27 15 16 7 8 9 10 11 14 12 13 38 37 36 34 33 32 31 30 29 28 39 40 41 42 43 121 120 118 119 117 115 116 58 57 56 55 53 54 52 51 49 44 50 47 46 78 77 76 81 82 83 84 73 72 71 68 67 66 69 70 75 74 85 86 87 88 89 90 63 64 65 61 59 60 62 92 91 95 93 94 96 97 98 99 100 101 102 103 104 105 106 107 108 109 110 111 112 114 113 122 124 125 126 128 129 130 131 133 142 141 140 139 138 137 136 135 134 132 143 144 145 146 147 148 149 150 151 152 155 153 154 127 123 48 79 80 45 35 156 157 158 0 
